NAME JobShopModel
ROWS
 N  OBJ
 G  c0      
 E  c1      
 E  c2      
 E  c3      
 E  c4      
 E  c5      
 E  c6      
 L  c7      
 L  c8      
 L  c9      
 L  c10     
 L  c11     
 L  c12     
 L  c13     
 L  c14     
 L  c15     
 L  c16     
 G  c17     
 G  c18     
 G  c19     
 G  c20     
 G  c21     
 G  c22     
 G  c23     
 G  c24     
 G  c25     
 G  c26     
 G  c27     
 G  c28     
 G  c29     
 G  c30     
 G  c31     
 G  c32     
 G  c33     
 G  c34     
 G  c35     
 G  c36     
 G  c37     
 G  c38     
 G  c39     
 G  c40     
 G  c41     
 G  c42     
 G  c43     
 G  c44     
 G  c45     
 G  c46     
 G  c47     
 G  c48     
 G  c49     
 G  c50     
 G  c51     
 G  c52     
 G  c53     
 G  c54     
 G  c55     
 G  c56     
 G  c57     
 G  c58     
 G  c59     
 G  c60     
 G  c61     
 G  c62     
 G  c63     
 G  c64     
 G  c65     
 G  c66     
 G  c67     
 G  c68     
 G  c69     
 G  c70     
 G  c71     
 G  c72     
 G  c73     
 G  c74     
 G  c75     
 G  c76     
 G  c77     
 G  c78     
 G  c79     
 G  c80     
 G  c81     
 G  c82     
 G  c83     
 G  c84     
 G  c85     
 G  c86     
COLUMNS
    MARKER    'MARKER'                 'INTORG'
    y[0,0,0]  c0        -87
    y[0,0,0]  c1        1
    y[0,0,0]  c7        -10000000
    y[0,0,0]  c20       -10000000
    y[0,0,0]  c21       -10000000
    y[0,0,0]  c28       -10000000
    y[0,0,0]  c29       -10000000
    y[0,0,0]  c32       -10000000
    y[0,0,0]  c33       -10000000
    y[0,0,0]  c36       -10000000
    y[0,0,0]  c37       -10000000
    y[0,0,1]  c0        -95
    y[0,0,1]  c1        1
    y[0,0,1]  c8        -10000000
    y[0,0,1]  c22       -10000000
    y[0,0,1]  c23       -10000000
    y[0,0,1]  c24       -10000000
    y[0,0,1]  c25       -10000000
    y[0,0,1]  c26       -10000000
    y[0,0,1]  c27       -10000000
    y[0,0,1]  c30       -10000000
    y[0,0,1]  c31       -10000000
    y[0,0,1]  c34       -10000000
    y[0,0,1]  c35       -10000000
    y[0,0,1]  c38       -10000000
    y[0,0,1]  c39       -10000000
    y[0,1,0]  c2        1
    y[0,1,0]  c9        -10000000
    y[0,1,0]  c17       -54
    y[0,1,0]  c20       -10000000
    y[0,1,0]  c21       -10000000
    y[0,1,0]  c36       -10000000
    y[0,1,0]  c37       -10000000
    y[0,1,0]  c44       -10000000
    y[0,1,0]  c45       -10000000
    y[0,1,0]  c48       -10000000
    y[0,1,0]  c49       -10000000
    y[0,1,0]  c74       -480
    y[0,1,1]  c2        1
    y[0,1,1]  c10       -10000000
    y[0,1,1]  c17       -63
    y[0,1,1]  c22       -10000000
    y[0,1,1]  c23       -10000000
    y[0,1,1]  c38       -10000000
    y[0,1,1]  c39       -10000000
    y[0,1,1]  c40       -10000000
    y[0,1,1]  c41       -10000000
    y[0,1,1]  c42       -10000000
    y[0,1,1]  c43       -10000000
    y[0,1,1]  c46       -10000000
    y[0,1,1]  c47       -10000000
    y[0,1,1]  c50       -10000000
    y[0,1,1]  c51       -10000000
    y[0,1,1]  c76       -480
    y[1,0,1]  c0        -152
    y[1,0,1]  c3        1
    y[1,0,1]  c11       -10000000
    y[1,0,1]  c24       -10000000
    y[1,0,1]  c25       -10000000
    y[1,0,1]  c40       -10000000
    y[1,0,1]  c41       -10000000
    y[1,0,1]  c52       -10000000
    y[1,0,1]  c53       -10000000
    y[1,0,1]  c54       -10000000
    y[1,0,1]  c55       -10000000
    y[1,0,1]  c56       -10000000
    y[1,0,1]  c57       -10000000
    y[1,0,1]  c58       -10000000
    y[1,0,1]  c59       -10000000
    y[1,1,1]  c4        1
    y[1,1,1]  c12       -10000000
    y[1,1,1]  c18       -120
    y[1,1,1]  c26       -10000000
    y[1,1,1]  c27       -10000000
    y[1,1,1]  c42       -10000000
    y[1,1,1]  c43       -10000000
    y[1,1,1]  c52       -10000000
    y[1,1,1]  c53       -10000000
    y[1,1,1]  c58       -10000000
    y[1,1,1]  c59       -10000000
    y[1,1,1]  c60       -10000000
    y[1,1,1]  c61       -10000000
    y[1,1,1]  c62       -10000000
    y[1,1,1]  c63       -10000000
    y[1,1,1]  c79       -480
    y[2,0,0]  c0        -143
    y[2,0,0]  c5        1
    y[2,0,0]  c13       -10000000
    y[2,0,0]  c28       -10000000
    y[2,0,0]  c29       -10000000
    y[2,0,0]  c44       -10000000
    y[2,0,0]  c45       -10000000
    y[2,0,0]  c64       -10000000
    y[2,0,0]  c65       -10000000
    y[2,0,0]  c68       -10000000
    y[2,0,0]  c69       -10000000
    y[2,0,1]  c0        -124
    y[2,0,1]  c5        1
    y[2,0,1]  c14       -10000000
    y[2,0,1]  c30       -10000000
    y[2,0,1]  c31       -10000000
    y[2,0,1]  c46       -10000000
    y[2,0,1]  c47       -10000000
    y[2,0,1]  c54       -10000000
    y[2,0,1]  c55       -10000000
    y[2,0,1]  c60       -10000000
    y[2,0,1]  c61       -10000000
    y[2,0,1]  c66       -10000000
    y[2,0,1]  c67       -10000000
    y[2,0,1]  c70       -10000000
    y[2,0,1]  c71       -10000000
    y[2,1,0]  c6        1
    y[2,1,0]  c15       -10000000
    y[2,1,0]  c19       -125
    y[2,1,0]  c32       -10000000
    y[2,1,0]  c33       -10000000
    y[2,1,0]  c48       -10000000
    y[2,1,0]  c49       -10000000
    y[2,1,0]  c64       -10000000
    y[2,1,0]  c65       -10000000
    y[2,1,0]  c68       -10000000
    y[2,1,0]  c69       -10000000
    y[2,1,0]  c83       -480
    y[2,1,1]  c6        1
    y[2,1,1]  c16       -10000000
    y[2,1,1]  c19       -135
    y[2,1,1]  c34       -10000000
    y[2,1,1]  c35       -10000000
    y[2,1,1]  c50       -10000000
    y[2,1,1]  c51       -10000000
    y[2,1,1]  c56       -10000000
    y[2,1,1]  c57       -10000000
    y[2,1,1]  c62       -10000000
    y[2,1,1]  c63       -10000000
    y[2,1,1]  c66       -10000000
    y[2,1,1]  c67       -10000000
    y[2,1,1]  c70       -10000000
    y[2,1,1]  c71       -10000000
    y[2,1,1]  c85       -480
    x[0,0,0,0]  OBJ       0
    x[0,0,0,1]  c20       10000000
    x[0,0,0,1]  c21       -10000000
    x[0,0,0,1]  c22       10000000
    x[0,0,0,1]  c23       -10000000
    x[0,0,1,0]  c24       10000000
    x[0,0,1,0]  c25       -10000000
    x[0,0,1,1]  c26       10000000
    x[0,0,1,1]  c27       -10000000
    x[0,0,2,0]  c28       10000000
    x[0,0,2,0]  c29       -10000000
    x[0,0,2,0]  c30       10000000
    x[0,0,2,0]  c31       -10000000
    x[0,0,2,1]  c32       10000000
    x[0,0,2,1]  c33       -10000000
    x[0,0,2,1]  c34       10000000
    x[0,0,2,1]  c35       -10000000
    x[0,1,0,0]  c36       10000000
    x[0,1,0,0]  c37       -10000000
    x[0,1,0,0]  c38       10000000
    x[0,1,0,0]  c39       -10000000
    x[0,1,0,1]  OBJ       0
    x[0,1,1,0]  c40       10000000
    x[0,1,1,0]  c41       -10000000
    x[0,1,1,1]  c42       10000000
    x[0,1,1,1]  c43       -10000000
    x[0,1,2,0]  c44       10000000
    x[0,1,2,0]  c45       -10000000
    x[0,1,2,0]  c46       10000000
    x[0,1,2,0]  c47       -10000000
    x[0,1,2,1]  c48       10000000
    x[0,1,2,1]  c49       -10000000
    x[0,1,2,1]  c50       10000000
    x[0,1,2,1]  c51       -10000000
    x[1,0,0,0]  OBJ       0
    x[1,0,0,1]  OBJ       0
    x[1,0,1,0]  OBJ       0
    x[1,0,1,1]  c52       10000000
    x[1,0,1,1]  c53       -10000000
    x[1,0,2,0]  c54       10000000
    x[1,0,2,0]  c55       -10000000
    x[1,0,2,1]  c56       10000000
    x[1,0,2,1]  c57       -10000000
    x[1,1,0,0]  OBJ       0
    x[1,1,0,1]  OBJ       0
    x[1,1,1,0]  c58       10000000
    x[1,1,1,0]  c59       -10000000
    x[1,1,1,1]  OBJ       0
    x[1,1,2,0]  c60       10000000
    x[1,1,2,0]  c61       -10000000
    x[1,1,2,1]  c62       10000000
    x[1,1,2,1]  c63       -10000000
    x[2,0,0,0]  OBJ       0
    x[2,0,0,1]  OBJ       0
    x[2,0,1,0]  OBJ       0
    x[2,0,1,1]  OBJ       0
    x[2,0,2,0]  OBJ       0
    x[2,0,2,1]  c64       10000000
    x[2,0,2,1]  c65       -10000000
    x[2,0,2,1]  c66       10000000
    x[2,0,2,1]  c67       -10000000
    x[2,1,0,0]  OBJ       0
    x[2,1,0,1]  OBJ       0
    x[2,1,1,0]  OBJ       0
    x[2,1,1,1]  OBJ       0
    x[2,1,2,0]  c68       10000000
    x[2,1,2,0]  c69       -10000000
    x[2,1,2,0]  c70       10000000
    x[2,1,2,0]  c71       -10000000
    x[2,1,2,1]  OBJ       0
    s[0,0,0]  c0        -1
    s[0,0,0]  c7        1
    s[0,0,0]  c17       1
    s[0,0,0]  c20       -1
    s[0,0,0]  c21       1
    s[0,0,0]  c28       -1
    s[0,0,0]  c29       1
    s[0,0,0]  c32       -1
    s[0,0,0]  c33       1
    s[0,0,0]  c36       1
    s[0,0,0]  c37       -1
    s[0,0,0]  c72       1
    s[0,0,1]  c0        -1
    s[0,0,1]  c8        1
    s[0,0,1]  c17       1
    s[0,0,1]  c22       -1
    s[0,0,1]  c23       1
    s[0,0,1]  c24       -1
    s[0,0,1]  c25       1
    s[0,0,1]  c26       -1
    s[0,0,1]  c27       1
    s[0,0,1]  c30       -1
    s[0,0,1]  c31       1
    s[0,0,1]  c34       -1
    s[0,0,1]  c35       1
    s[0,0,1]  c38       1
    s[0,0,1]  c39       -1
    s[0,0,1]  c73       1
    s[0,1,0]  c9        1
    s[0,1,0]  c17       -1
    s[0,1,0]  c20       1
    s[0,1,0]  c21       -1
    s[0,1,0]  c36       -1
    s[0,1,0]  c37       1
    s[0,1,0]  c44       -1
    s[0,1,0]  c45       1
    s[0,1,0]  c48       -1
    s[0,1,0]  c49       1
    s[0,1,0]  c74       1
    s[0,1,0]  c75       1
    s[0,1,1]  c10       1
    s[0,1,1]  c17       -1
    s[0,1,1]  c22       1
    s[0,1,1]  c23       -1
    s[0,1,1]  c38       -1
    s[0,1,1]  c39       1
    s[0,1,1]  c40       -1
    s[0,1,1]  c41       1
    s[0,1,1]  c42       -1
    s[0,1,1]  c43       1
    s[0,1,1]  c46       -1
    s[0,1,1]  c47       1
    s[0,1,1]  c50       -1
    s[0,1,1]  c51       1
    s[0,1,1]  c76       1
    s[0,1,1]  c77       1
    s[1,0,1]  c0        -1
    s[1,0,1]  c11       1
    s[1,0,1]  c18       1
    s[1,0,1]  c24       1
    s[1,0,1]  c25       -1
    s[1,0,1]  c40       1
    s[1,0,1]  c41       -1
    s[1,0,1]  c52       -1
    s[1,0,1]  c53       1
    s[1,0,1]  c54       -1
    s[1,0,1]  c55       1
    s[1,0,1]  c56       -1
    s[1,0,1]  c57       1
    s[1,0,1]  c58       1
    s[1,0,1]  c59       -1
    s[1,0,1]  c78       1
    s[1,1,1]  c12       1
    s[1,1,1]  c18       -1
    s[1,1,1]  c26       1
    s[1,1,1]  c27       -1
    s[1,1,1]  c42       1
    s[1,1,1]  c43       -1
    s[1,1,1]  c52       1
    s[1,1,1]  c53       -1
    s[1,1,1]  c58       -1
    s[1,1,1]  c59       1
    s[1,1,1]  c60       -1
    s[1,1,1]  c61       1
    s[1,1,1]  c62       -1
    s[1,1,1]  c63       1
    s[1,1,1]  c79       1
    s[1,1,1]  c80       1
    s[2,0,0]  c0        -1
    s[2,0,0]  c13       1
    s[2,0,0]  c19       1
    s[2,0,0]  c28       1
    s[2,0,0]  c29       -1
    s[2,0,0]  c44       1
    s[2,0,0]  c45       -1
    s[2,0,0]  c64       -1
    s[2,0,0]  c65       1
    s[2,0,0]  c68       1
    s[2,0,0]  c69       -1
    s[2,0,0]  c81       1
    s[2,0,1]  c0        -1
    s[2,0,1]  c14       1
    s[2,0,1]  c19       1
    s[2,0,1]  c30       1
    s[2,0,1]  c31       -1
    s[2,0,1]  c46       1
    s[2,0,1]  c47       -1
    s[2,0,1]  c54       1
    s[2,0,1]  c55       -1
    s[2,0,1]  c60       1
    s[2,0,1]  c61       -1
    s[2,0,1]  c66       -1
    s[2,0,1]  c67       1
    s[2,0,1]  c70       1
    s[2,0,1]  c71       -1
    s[2,0,1]  c82       1
    s[2,1,0]  c15       1
    s[2,1,0]  c19       -1
    s[2,1,0]  c32       1
    s[2,1,0]  c33       -1
    s[2,1,0]  c48       1
    s[2,1,0]  c49       -1
    s[2,1,0]  c64       1
    s[2,1,0]  c65       -1
    s[2,1,0]  c68       -1
    s[2,1,0]  c69       1
    s[2,1,0]  c83       1
    s[2,1,0]  c84       1
    s[2,1,1]  c16       1
    s[2,1,1]  c19       -1
    s[2,1,1]  c34       1
    s[2,1,1]  c35       -1
    s[2,1,1]  c50       1
    s[2,1,1]  c51       -1
    s[2,1,1]  c56       1
    s[2,1,1]  c57       -1
    s[2,1,1]  c62       1
    s[2,1,1]  c63       -1
    s[2,1,1]  c66       1
    s[2,1,1]  c67       -1
    s[2,1,1]  c70       -1
    s[2,1,1]  c71       1
    s[2,1,1]  c85       1
    s[2,1,1]  c86       1
    Z_FO      OBJ       1
    Z_FO      c0        1
    MARKER    'MARKER'                 'INTEND'
RHS
    RHS1      c1        1
    RHS1      c2        1
    RHS1      c3        1
    RHS1      c4        1
    RHS1      c5        1
    RHS1      c6        1
    RHS1      c20       -19999556
    RHS1      c21       -29999748
    RHS1      c22       -19999485
    RHS1      c23       -29999796
    RHS1      c24       -19999521
    RHS1      c25       -29999464
    RHS1      c26       -19999725
    RHS1      c27       -29999756
    RHS1      c28       -19999613
    RHS1      c29       -29999515
    RHS1      c30       -19999772
    RHS1      c31       -29999811
    RHS1      c32       -19999547
    RHS1      c33       -29999683
    RHS1      c34       -19999545
    RHS1      c35       -29999469
    RHS1      c36       -19999748
    RHS1      c37       -29999556
    RHS1      c38       -19999796
    RHS1      c39       -29999485
    RHS1      c40       -19999541
    RHS1      c41       -29999416
    RHS1      c42       -19999497
    RHS1      c43       -29999618
    RHS1      c44       -19999511
    RHS1      c45       -29999711
    RHS1      c46       -19999813
    RHS1      c47       -29999812
    RHS1      c48       -19999881
    RHS1      c49       -29999759
    RHS1      c50       -19999361
    RHS1      c51       -29999195
    RHS1      c52       -19999293
    RHS1      c53       -29999550
    RHS1      c54       -19999491
    RHS1      c55       -29999300
    RHS1      c56       -19999476
    RHS1      c57       -29999753
    RHS1      c58       -19999550
    RHS1      c59       -29999293
    RHS1      c60       -19999649
    RHS1      c61       -29999456
    RHS1      c62       -19999748
    RHS1      c63       -29999663
    RHS1      c64       -19999412
    RHS1      c65       -29999683
    RHS1      c66       -19999408
    RHS1      c67       -29999621
    RHS1      c68       -19999683
    RHS1      c69       -29999412
    RHS1      c70       -19999621
    RHS1      c71       -29999408
BOUNDS
 BV BND1      y[0,0,0]
 BV BND1      y[0,0,1]
 BV BND1      y[0,1,0]
 BV BND1      y[0,1,1]
 BV BND1      y[1,0,1]
 BV BND1      y[1,1,1]
 BV BND1      y[2,0,0]
 BV BND1      y[2,0,1]
 BV BND1      y[2,1,0]
 BV BND1      y[2,1,1]
 BV BND1      x[0,0,0,0]
 BV BND1      x[0,0,0,1]
 BV BND1      x[0,0,1,0]
 BV BND1      x[0,0,1,1]
 BV BND1      x[0,0,2,0]
 BV BND1      x[0,0,2,1]
 BV BND1      x[0,1,0,0]
 BV BND1      x[0,1,0,1]
 BV BND1      x[0,1,1,0]
 BV BND1      x[0,1,1,1]
 BV BND1      x[0,1,2,0]
 BV BND1      x[0,1,2,1]
 BV BND1      x[1,0,0,0]
 BV BND1      x[1,0,0,1]
 BV BND1      x[1,0,1,0]
 BV BND1      x[1,0,1,1]
 BV BND1      x[1,0,2,0]
 BV BND1      x[1,0,2,1]
 BV BND1      x[1,1,0,0]
 BV BND1      x[1,1,0,1]
 BV BND1      x[1,1,1,0]
 BV BND1      x[1,1,1,1]
 BV BND1      x[1,1,2,0]
 BV BND1      x[1,1,2,1]
 BV BND1      x[2,0,0,0]
 BV BND1      x[2,0,0,1]
 BV BND1      x[2,0,1,0]
 BV BND1      x[2,0,1,1]
 BV BND1      x[2,0,2,0]
 BV BND1      x[2,0,2,1]
 BV BND1      x[2,1,0,0]
 BV BND1      x[2,1,0,1]
 BV BND1      x[2,1,1,0]
 BV BND1      x[2,1,1,1]
 BV BND1      x[2,1,2,0]
 BV BND1      x[2,1,2,1]
 LI BND1      s[0,0,0]  0
 LI BND1      s[0,0,1]  0
 LI BND1      s[0,1,0]  0
 LI BND1      s[0,1,1]  0
 LI BND1      s[1,0,1]  0
 LI BND1      s[1,1,1]  0
 LI BND1      s[2,0,0]  0
 LI BND1      s[2,0,1]  0
 LI BND1      s[2,1,0]  0
 LI BND1      s[2,1,1]  0
 LI BND1      Z_FO      0
ENDATA
